pp_dirpath "../../../pseudo"
pseudos "Al_11e.upf"

ntypat 1
znucl 13
natom 1
typat 1

acell 1 1 1 angstrom
rprim
  0.0    2.025 2.025
  2.025  0.0   2.025
  2.025  2.025 0.0

xred
  0.0   0.0   0.0

ecut 15.0
nband 8
ixc 11  # PBE (matching UPF pseudopotential)

ndtset 2

iscf1 7
diemix1 0.3
tolvrs1 1.0d-8
nstep1 50
kptopt1 1
ngkpt1 6 6 6
nshiftk1 1
shiftk1 0.0 0.0 0.0
prtden1 1

occopt 3
tsmear 0.01

iscf2 -2
getden2 1
tolwfr2 1.0d-8
wfoptalg2 14
nkpt2 101
kptopt2 0
kpt2
  0.0000000000 0.0000000000 0.0000000000
  0.0250000000 0.0000000000 0.0250000000
  0.0500000000 0.0000000000 0.0500000000
  0.0750000000 0.0000000000 0.0750000000
  0.1000000000 0.0000000000 0.1000000000
  0.1250000000 0.0000000000 0.1250000000
  0.1500000000 0.0000000000 0.1500000000
  0.1750000000 0.0000000000 0.1750000000
  0.2000000000 0.0000000000 0.2000000000
  0.2250000000 0.0000000000 0.2250000000
  0.2500000000 0.0000000000 0.2500000000
  0.2750000000 0.0000000000 0.2750000000
  0.3000000000 0.0000000000 0.3000000000
  0.3250000000 0.0000000000 0.3250000000
  0.3500000000 0.0000000000 0.3500000000
  0.3750000000 0.0000000000 0.3750000000
  0.4000000000 0.0000000000 0.4000000000
  0.4250000000 0.0000000000 0.4250000000
  0.4500000000 0.0000000000 0.4500000000
  0.4750000000 0.0000000000 0.4750000000
  0.5000000000 0.0000000000 0.5000000000
  0.5000000000 0.0125000000 0.5125000000
  0.5000000000 0.0250000000 0.5250000000
  0.5000000000 0.0375000000 0.5375000000
  0.5000000000 0.0500000000 0.5500000000
  0.5000000000 0.0625000000 0.5625000000
  0.5000000000 0.0750000000 0.5750000000
  0.5000000000 0.0875000000 0.5875000000
  0.5000000000 0.1000000000 0.6000000000
  0.5000000000 0.1125000000 0.6125000000
  0.5000000000 0.1250000000 0.6250000000
  0.5000000000 0.1375000000 0.6375000000
  0.5000000000 0.1500000000 0.6500000000
  0.5000000000 0.1625000000 0.6625000000
  0.5000000000 0.1750000000 0.6750000000
  0.5000000000 0.1875000000 0.6875000000
  0.5000000000 0.2000000000 0.7000000000
  0.5000000000 0.2125000000 0.7125000000
  0.5000000000 0.2250000000 0.7250000000
  0.5000000000 0.2375000000 0.7375000000
  0.5000000000 0.2500000000 0.7500000000
  0.4937500000 0.2562500000 0.7500000000
  0.4875000000 0.2625000000 0.7500000000
  0.4812500000 0.2687500000 0.7500000000
  0.4750000000 0.2750000000 0.7500000000
  0.4687500000 0.2812500000 0.7500000000
  0.4625000000 0.2875000000 0.7500000000
  0.4562500000 0.2937500000 0.7500000000
  0.4500000000 0.3000000000 0.7500000000
  0.4437500000 0.3062500000 0.7500000000
  0.4375000000 0.3125000000 0.7500000000
  0.4312500000 0.3187500000 0.7500000000
  0.4250000000 0.3250000000 0.7500000000
  0.4187500000 0.3312500000 0.7500000000
  0.4125000000 0.3375000000 0.7500000000
  0.4062500000 0.3437500000 0.7500000000
  0.4000000000 0.3500000000 0.7500000000
  0.3937500000 0.3562500000 0.7500000000
  0.3875000000 0.3625000000 0.7500000000
  0.3812500000 0.3687500000 0.7500000000
  0.3750000000 0.3750000000 0.7500000000
  0.3562500000 0.3562500000 0.7125000000
  0.3375000000 0.3375000000 0.6750000000
  0.3187500000 0.3187500000 0.6375000000
  0.3000000000 0.3000000000 0.6000000000
  0.2812500000 0.2812500000 0.5625000000
  0.2625000000 0.2625000000 0.5250000000
  0.2437500000 0.2437500000 0.4875000000
  0.2250000000 0.2250000000 0.4500000000
  0.2062500000 0.2062500000 0.4125000000
  0.1875000000 0.1875000000 0.3750000000
  0.1687500000 0.1687500000 0.3375000000
  0.1500000000 0.1500000000 0.3000000000
  0.1312500000 0.1312500000 0.2625000000
  0.1125000000 0.1125000000 0.2250000000
  0.0937500000 0.0937500000 0.1875000000
  0.0750000000 0.0750000000 0.1500000000
  0.0562500000 0.0562500000 0.1125000000
  0.0375000000 0.0375000000 0.0750000000
  0.0187500000 0.0187500000 0.0375000000
  0.0000000000 0.0000000000 0.0000000000
  0.0250000000 0.0250000000 0.0250000000
  0.0500000000 0.0500000000 0.0500000000
  0.0750000000 0.0750000000 0.0750000000
  0.1000000000 0.1000000000 0.1000000000
  0.1250000000 0.1250000000 0.1250000000
  0.1500000000 0.1500000000 0.1500000000
  0.1750000000 0.1750000000 0.1750000000
  0.2000000000 0.2000000000 0.2000000000
  0.2250000000 0.2250000000 0.2250000000
  0.2500000000 0.2500000000 0.2500000000
  0.2750000000 0.2750000000 0.2750000000
  0.3000000000 0.3000000000 0.3000000000
  0.3250000000 0.3250000000 0.3250000000
  0.3500000000 0.3500000000 0.3500000000
  0.3750000000 0.3750000000 0.3750000000
  0.4000000000 0.4000000000 0.4000000000
  0.4250000000 0.4250000000 0.4250000000
  0.4500000000 0.4500000000 0.4500000000
  0.4750000000 0.4750000000 0.4750000000
  0.5000000000 0.5000000000 0.5000000000
