&CONTROL
  calculation = 'bands'
  pseudo_dir = '../../pseudo'
  outdir = './out_qe'
  prefix = 'si'
/
&SYSTEM
  ibrav = 0
  nat = 2
  ntyp = 1
  ecutwfc = 15.0
  nbnd = 8
  input_dft = 'PBE'
/
&ELECTRONS
  conv_thr = 1.0d-8
/
ATOMIC_SPECIES
  Si 28.0855 Si.pbe-n-kjpaw_psl.1.0.0.UPF

CELL_PARAMETERS {angstrom}
  0.0000  2.7155  2.7155
  2.7155  0.0000  2.7155
  2.7155  2.7155  0.0000

ATOMIC_POSITIONS {crystal}
  Si 0.00 0.00 0.00
  Si 0.25 0.25 0.25

K_POINTS {crystal_b}
3
  0.000 0.000 0.000  20
  0.500 0.000 0.500  20
  0.500 0.500 0.500  0
