# ABINIT band calculation for Fe BCC benchmark
# BCC primitive cell (1 atom), G -> H -> N -> G -> P -> H path
# Spin-polarized (nsppol=2)

pp_dirpath "../../pseudo"
pseudos "Fe_ONCV_PBE-1.2.upf"

indata_prefix "abinit_bandi"
outdata_prefix "abinit_bando"
tmpdata_prefix "abinit_band_tmp"

ntypat 1
znucl 26
natom 1
typat 1

acell 3*2.7117

rprim
 -1.0  1.0  1.0
  1.0 -1.0  1.0
  1.0  1.0 -1.0

xred
  0.00 0.00 0.00

ecut 30.0
nband 20
ixc 11  # PBE

# Spin-polarized
nsppol 2
spinat 0.0 0.0 4.0

# Non-SCF band calculation
iscf -2
irdden 1
tolwfr 1.0d-12
nstep 100

occopt 3
tsmear 0.01

# BCC BZ: G=(0,0,0), H=(1/2,-1/2,1/2), N=(0,0,1/2), P=(1/4,1/4,1/4)
kptopt 0
nkpt 101
kpt
# G -> H (20 points)
  0.000  0.000  0.000  # G
  0.025 -0.025  0.025
  0.050 -0.050  0.050
  0.075 -0.075  0.075
  0.100 -0.100  0.100
  0.125 -0.125  0.125
  0.150 -0.150  0.150
  0.175 -0.175  0.175
  0.200 -0.200  0.200
  0.225 -0.225  0.225
  0.250 -0.250  0.250
  0.275 -0.275  0.275
  0.300 -0.300  0.300
  0.325 -0.325  0.325
  0.350 -0.350  0.350
  0.375 -0.375  0.375
  0.400 -0.400  0.400
  0.425 -0.425  0.425
  0.450 -0.450  0.450
  0.475 -0.475  0.475
  0.500 -0.500  0.500  # H
# H -> N (20 points)
  0.475 -0.475  0.500
  0.450 -0.450  0.500
  0.425 -0.425  0.500
  0.400 -0.400  0.500
  0.375 -0.375  0.500
  0.350 -0.350  0.500
  0.325 -0.325  0.500
  0.300 -0.300  0.500
  0.275 -0.275  0.500
  0.250 -0.250  0.500
  0.225 -0.225  0.500
  0.200 -0.200  0.500
  0.175 -0.175  0.500
  0.150 -0.150  0.500
  0.125 -0.125  0.500
  0.100 -0.100  0.500
  0.075 -0.075  0.500
  0.050 -0.050  0.500
  0.025 -0.025  0.500
  0.000  0.000  0.500  # N
# N -> G (20 points)
  0.000  0.000  0.475
  0.000  0.000  0.450
  0.000  0.000  0.425
  0.000  0.000  0.400
  0.000  0.000  0.375
  0.000  0.000  0.350
  0.000  0.000  0.325
  0.000  0.000  0.300
  0.000  0.000  0.275
  0.000  0.000  0.250
  0.000  0.000  0.225
  0.000  0.000  0.200
  0.000  0.000  0.175
  0.000  0.000  0.150
  0.000  0.000  0.125
  0.000  0.000  0.100
  0.000  0.000  0.075
  0.000  0.000  0.050
  0.000  0.000  0.025
  0.000  0.000  0.000  # G
# G -> P (20 points)
  0.0125 0.0125 0.0125
  0.0250 0.0250 0.0250
  0.0375 0.0375 0.0375
  0.0500 0.0500 0.0500
  0.0625 0.0625 0.0625
  0.0750 0.0750 0.0750
  0.0875 0.0875 0.0875
  0.1000 0.1000 0.1000
  0.1125 0.1125 0.1125
  0.1250 0.1250 0.1250
  0.1375 0.1375 0.1375
  0.1500 0.1500 0.1500
  0.1625 0.1625 0.1625
  0.1750 0.1750 0.1750
  0.1875 0.1875 0.1875
  0.2000 0.2000 0.2000
  0.2125 0.2125 0.2125
  0.2250 0.2250 0.2250
  0.2375 0.2375 0.2375
  0.2500 0.2500 0.2500  # P
# P -> H (20 points): P=(1/4,1/4,1/4) -> H=(1/2,-1/2,1/2)
  0.2625  0.2125  0.2625
  0.2750  0.1750  0.2750
  0.2875  0.1375  0.2875
  0.3000  0.1000  0.3000
  0.3125  0.0625  0.3125
  0.3250  0.0250  0.3250
  0.3375 -0.0125  0.3375
  0.3500 -0.0500  0.3500
  0.3625 -0.0875  0.3625
  0.3750 -0.1250  0.3750
  0.3875 -0.1625  0.3875
  0.4000 -0.2000  0.4000
  0.4125 -0.2375  0.4125
  0.4250 -0.2750  0.4250
  0.4375 -0.3125  0.4375
  0.4500 -0.3500  0.4500
  0.4625 -0.3875  0.4625
  0.4750 -0.4250  0.4750
  0.4875 -0.4625  0.4875
  0.5000 -0.5000  0.5000  # H
